# Solution for model brooder_allocation
# Objective value = 1.6191999999999998e+03
X[0,0] 0
X[0,1] 0
X[0,2] 1
X[0,3] 1
X[0,4] 0
X[0,5] 0
X[0,6] 1
X[0,7] 0
X[0,8] 0
X[0,9] 0
X[0,10] 0
X[0,11] 0
X[0,12] 0
X[0,13] 1
X[0,14] 1
X[0,15] 0
X[0,16] 0
X[0,17] 0
X[0,18] 0
X[0,19] 0
X[0,20] 1
X[0,21] 0
X[0,22] 0
X[0,23] 0
X[0,24] 0
X[0,25] 1
X[0,26] 1
X[0,27] 1
X[0,28] 0
X[1,0] 0
X[1,1] 1
X[1,2] 0
X[1,3] 0
X[1,4] 0
X[1,5] 1
X[1,6] 0
X[1,7] 0
X[1,8] 0
X[1,9] 0
X[1,10] 0
X[1,11] 0
X[1,12] 0
X[1,13] 0
X[1,14] 0
X[1,15] 1
X[1,16] 0
X[1,17] 0
X[1,18] 0
X[1,19] 0
X[1,20] 0
X[1,21] 1
X[1,22] 1
X[1,23] 1
X[1,24] 0
X[1,25] 0
X[1,26] 0
X[1,27] 0
X[1,28] 0
X[2,0] 0
X[2,1] 0
X[2,2] 0
X[2,3] 0
X[2,4] 0
X[2,5] 0
X[2,6] 0
X[2,7] 1
X[2,8] 0
X[2,9] 0
X[2,10] 0
X[2,11] 1
X[2,12] 1
X[2,13] 0
X[2,14] 0
X[2,15] 0
X[2,16] 1
X[2,17] 0
X[2,18] 1
X[2,19] 0
X[2,20] 0
X[2,21] 0
X[2,22] 0
X[2,23] 0
X[2,24] 0
X[2,25] 0
X[2,26] 0
X[2,27] 0
X[2,28] 1
X[3,0] 1
X[3,1] 0
X[3,2] 0
X[3,3] 0
X[3,4] 1
X[3,5] 0
X[3,6] 0
X[3,7] 0
X[3,8] 1
X[3,9] 1
X[3,10] 1
X[3,11] 0
X[3,12] 0
X[3,13] 0
X[3,14] 0
X[3,15] 0
X[3,16] 0
X[3,17] 1
X[3,18] 0
X[3,19] 1
X[3,20] 0
X[3,21] 0
X[3,22] 0
X[3,23] 0
X[3,24] 1
X[3,25] 0
X[3,26] 0
X[3,27] 0
X[3,28] 0
